data;


param d:= 100;
param r:=5;
param p:=0.840000;
param M:=1000;
param U:=
         1         1        5.941432e-01
         2         1        7.693305e-01
         3         1       -6.627221e-01
         4         1       -1.968806e-01
         5         1        3.180192e-01
         6         1        1.037950e+00
         7         1        1.623540e+00
         8         1        5.712706e-01
         9         1       -1.577895e+00
        10         1       -6.407933e-01
        11         1       -8.484020e-01
        12         1        2.666940e-01
        13         1       -1.543492e-01
        14         1       -9.816567e-01
        15         1       -1.880350e-01
        16         1        5.325030e-01
        17         1       -9.486486e-01
        18         1        2.465176e-01
        19         1        1.959827e-02
        20         1        9.731991e-01
        21         1       -1.173190e+00
        22         1        1.234593e+00
        23         1        6.101379e-01
        24         1       -3.992569e-01
        25         1       -1.195885e+00
        26         1        4.576310e-01
        27         1        2.165356e-01
        28         1        4.659056e-01
        29         1       -5.338074e-01
        30         1       -6.427349e-01
        31         1        2.866786e-01
        32         1        7.079929e-01
        33         1        2.384418e+00
        34         1       -8.210059e-01
        35         1        1.058360e+00
        36         1       -2.142366e-01
        37         1        7.973295e-01
        38         1       -2.093299e+00
        39         1        1.524889e+00
        40         1       -1.174982e+00
        41         1        8.020396e-01
        42         1        2.225823e-01
        43         1        1.558569e+00
        44         1        2.528538e-02
        45         1        2.889033e-02
        46         1        4.648538e-01
        47         1        8.659268e-01
        48         1        6.643113e-01
        49         1        9.532753e-02
        50         1       -8.741700e-01
        51         1       -3.416766e-01
        52         1        6.028510e-02
        53         1        3.678974e-01
        54         1        9.412898e-02
        55         1       -1.312477e+00
        56         1        8.501601e-01
        57         1        6.313620e-01
        58         1       -2.451042e-01
        59         1        2.521809e-01
        60         1       -3.225778e-01
        61         1        5.449404e-01
        62         1        3.858744e-01
        63         1        2.152664e+00
        64         1        5.209975e-01
        65         1        1.100615e+00
        66         1        1.712147e+00
        67         1       -1.041571e-01
        68         1       -1.170320e+00
        69         1        3.905216e-01
        70         1        1.453142e+00
        71         1       -1.521124e-01
        72         1       -2.625819e-02
        73         1        1.120707e+00
        74         1        7.918895e-01
        75         1       -8.959161e-01
        76         1       -1.172061e+00
        77         1       -2.558709e+00
        78         1        3.533053e-01
        79         1       -2.322170e+00
        80         1        2.883960e-01
        81         1       -2.389116e-01
        82         1       -3.082937e-01
        83         1        1.455666e+00
        84         1       -8.589209e-01
        85         1       -3.288659e-01
        86         1        1.994654e+00
        87         1       -1.270433e+00
        88         1       -1.582058e-01
        89         1       -2.878218e-01
        90         1       -7.005146e-01
        91         1        5.442304e-01
        92         1       -9.498420e-01
        93         1        1.587286e+00
        94         1       -3.592055e-01
        95         1       -2.183846e-01
        96         1       -2.287995e-01
        97         1        1.203024e+00
        98         1        1.014695e+00
        99         1       -5.765586e-01
       100         1       -2.045730e+00
         1         2        9.048685e-01
         2         2       -1.538811e+00
         3         2        3.232158e-01
         4         2       -1.757039e+00
         5         2       -7.095569e-01
         6         2        3.020460e-01
         7         2        8.739192e-02
         8         2       -5.444510e-01
         9         2       -7.460146e-01
        10         2        6.333836e-01
        11         2       -5.377790e-02
        12         2        1.810604e+00
        13         2        1.157923e+00
        14         2       -1.545682e+00
        15         2        1.324334e+00
        16         2       -6.949386e-01
        17         2       -2.998009e-01
        18         2       -1.006933e-01
        19         2        7.152697e-01
        20         2        4.443349e-01
        21         2       -5.041019e-01
        22         2        7.950135e-01
        23         2       -2.079578e-01
        24         2        7.290955e-01
        25         2       -1.209334e-01
        26         2        3.147779e-01
        27         2        2.687476e-01
        28         2       -1.100949e+00
        29         2        5.245862e-01
        30         2       -8.071070e-01
        31         2       -3.915717e-01
        32         2        5.038068e-01
        33         2       -3.905223e-01
        34         2       -2.406608e-01
        35         2       -1.101059e-01
        36         2        1.506629e-01
        37         2        1.537622e+00
        38         2       -8.717118e-01
        39         2       -8.318188e-01
        40         2       -1.273198e+00
        41         2       -5.145798e-01
        42         2       -2.754772e-01
        43         2       -1.062042e-01
        44         2        3.751983e-01
        45         2       -4.036674e-01
        46         2        1.644965e+00
        47         2       -3.037524e-01
        48         2       -5.576563e-01
        49         2       -1.044378e+00
        50         2        8.741989e-01
        51         2       -5.466982e-01
        52         2       -7.731797e-01
        53         2        4.308935e-01
        54         2        3.034652e+00
        55         2       -1.188528e+00
        56         2       -1.003732e-01
        57         2        1.575037e+00
        58         2       -7.515831e-02
        59         2       -6.080573e-01
        60         2       -4.241168e-01
        61         2       -1.138530e+00
        62         2       -3.252050e-02
        63         2       -9.459374e-01
        64         2       -9.702529e-02
        65         2       -3.404391e-01
        66         2        3.740018e-01
        67         2       -1.235348e+00
        68         2       -4.635461e-01
        69         2        3.530060e-01
        70         2        7.302989e-01
        71         2       -1.092354e+00
        72         2       -7.809376e-01
        73         2        1.586811e+00
        74         2        5.110499e-01
        75         2        1.191213e+00
        76         2       -8.441890e-01
        77         2        9.266130e-01
        78         2       -1.129132e+00
        79         2        1.700669e+00
        80         2       -1.375950e+00
        81         2        3.813585e+00
        82         2       -1.065470e+00
        83         2       -5.869218e-02
        84         2        1.662208e+00
        85         2       -2.287218e-01
        86         2       -2.015640e+00
        87         2       -4.105609e-01
        88         2       -5.675129e-01
        89         2        8.742980e-02
        90         2       -2.364574e+00
        91         2        9.498322e-01
        92         2       -1.326337e+00
        93         2        1.071609e-01
        94         2       -2.111139e-01
        95         2        8.075289e-01
        96         2        6.046267e-01
        97         2       -2.905755e-01
        98         2        2.809487e-01
        99         2        8.730352e-02
       100         2        5.267723e-01
         1         3        8.203269e-01
         2         3        3.065329e-01
         3         3       -1.968892e+00
         4         3       -1.444023e+00
         5         3       -1.058573e+00
         6         3       -1.461167e+00
         7         3       -8.984053e-01
         8         3       -1.769240e+00
         9         3        9.273025e-01
        10         3        1.483075e+00
        11         3        1.523829e+00
        12         3       -1.679174e+00
        13         3       -1.338981e+00
        14         3       -9.148363e-01
        15         3        2.903294e-01
        16         3        1.538556e+00
        17         3        1.383106e+00
        18         3       -1.615473e+00
        19         3        1.091287e+00
        20         3        8.241878e-01
        21         3       -3.077806e-01
        22         3       -6.042436e-01
        23         3       -6.570681e-01
        24         3       -1.319911e-01
        25         3       -7.055207e-01
        26         3       -1.110390e-01
        27         3        8.956011e-01
        28         3       -3.132998e-01
        29         3        7.709224e-02
        30         3        7.726510e-01
        31         3       -1.467088e-01
        32         3       -1.074465e+00
        33         3        8.163700e-01
        34         3       -5.848920e-01
        35         3        8.548405e-01
        36         3        1.025789e+00
        37         3        4.153039e-01
        38         3        1.182165e+00
        39         3        5.497110e-01
        40         3        3.915392e-02
        41         3       -6.124241e-01
        42         3        2.227993e-01
        43         3       -5.946308e-01
        44         3        1.330270e-01
        45         3       -7.064731e-01
        46         3        1.529490e+00
        47         3       -2.565659e-01
        48         3       -3.766555e-01
        49         3        7.441827e-01
        50         3       -1.771405e+00
        51         3       -1.290633e+00
        52         3       -1.152084e+00
        53         3        1.056014e+00
        54         3       -2.077307e-01
        55         3        1.308679e+00
        56         3       -3.610857e+00
        57         3        1.371111e+00
        58         3       -2.808501e-01
        59         3        2.636612e-01
        60         3        4.924746e-01
        61         3       -9.875358e-01
        62         3       -1.643517e+00
        63         3        2.343586e-01
        64         3        1.508674e-01
        65         3       -5.896596e-01
        66         3       -5.580306e-01
        67         3        5.550110e-01
        68         3       -2.101565e+00
        69         3        4.871117e-01
        70         3       -2.049085e-01
        71         3       -5.384485e-01
        72         3        9.402448e-01
        73         3       -1.607740e+00
        74         3       -1.218342e+00
        75         3       -4.941535e-01
        76         3        5.402513e-01
        77         3       -2.116076e-01
        78         3       -3.546790e-01
        79         3       -6.522200e-01
        80         3        2.133541e+00
        81         3       -2.036414e+00
        82         3       -5.972389e-01
        83         3       -1.077868e+00
        84         3       -5.923481e-01
        85         3        8.529231e-01
        86         3        2.433266e+00
        87         3       -8.174483e-01
        88         3        8.137865e-02
        89         3        1.685785e+00
        90         3        6.608827e-01
        91         3       -8.608025e-01
        92         3        2.541516e-03
        93         3        1.389748e+00
        94         3       -5.092300e-01
        95         3        1.022671e-01
        96         3        7.402638e-01
        97         3        7.979845e-02
        98         3        6.945076e-01
        99         3        1.179479e+00
       100         3       -5.940163e-01
         1         4        9.805771e-01
         2         4        4.282587e-02
         3         4       -4.568065e-01
         4         4       -2.289957e+00
         5         4       -1.442397e+00
         6         4        2.957701e-01
         7         4        7.293399e-01
         8         4       -3.819324e-01
         9         4       -8.416727e-02
        10         4       -8.471906e-01
        11         4        1.477177e+00
        12         4       -2.902100e-01
        13         4        1.455745e+00
        14         4       -1.208343e+00
        15         4        1.850422e+00
        16         4       -1.074252e+00
        17         4       -3.929698e-01
        18         4        2.157662e+00
        19         4       -3.092433e-01
        20         4       -3.201690e-01
        21         4        1.374920e+00
        22         4       -1.718342e-01
        23         4       -2.681375e+00
        24         4        8.781633e-01
        25         4       -6.336776e-01
        26         4       -1.568363e+00
        27         4       -1.191257e+00
        28         4       -2.387665e+00
        29         4        4.388464e-01
        30         4       -1.404914e+00
        31         4       -5.841862e-01
        32         4       -2.576467e+00
        33         4        3.133520e-01
        34         4       -3.146846e-01
        35         4        1.319346e+00
        36         4       -1.446698e-01
        37         4       -1.630399e+00
        38         4       -8.933581e-01
        39         4        1.471738e+00
        40         4       -1.327079e+00
        41         4        6.573386e-01
        42         4       -2.280464e-01
        43         4        9.446771e-01
        44         4        4.834963e-01
        45         4        1.710890e-01
        46         4        1.229677e+00
        47         4        7.209165e-01
        48         4       -1.559240e+00
        49         4        5.519738e-01
        50         4        3.163539e-01
        51         4       -1.478967e-01
        52         4       -7.027012e-01
        53         4        1.590523e+00
        54         4       -1.344323e+00
        55         4        4.361477e-02
        56         4        1.186266e+00
        57         4       -9.870133e-01
        58         4       -6.467967e-01
        59         4        6.053055e-01
        60         4        1.202146e+00
        61         4       -3.566125e-01
        62         4        2.860072e-02
        63         4        1.028133e-01
        64         4       -1.312752e-01
        65         4       -2.006896e+00
        66         4        1.555159e+00
        67         4        6.844786e-01
        68         4       -5.075043e-01
        69         4        3.565942e-01
        70         4        9.303503e-01
        71         4        8.098443e-01
        72         4       -6.365366e-02
        73         4        1.030049e-01
        74         4       -1.262749e+00
        75         4        4.573159e-01
        76         4       -1.045859e-01
        77         4       -7.477990e-01
        78         4       -7.781093e-02
        79         4        6.403481e-01
        80         4        1.528450e+00
        81         4       -2.504153e-02
        82         4       -2.735853e-01
        83         4       -7.329713e-01
        84         4        1.337373e-01
        85         4        2.491527e-02
        86         4        4.794402e-01
        87         4        8.923584e-01
        88         4       -1.015442e+00
        89         4        1.173414e+00
        90         4       -7.614209e-01
        91         4        3.060930e-01
        92         4       -5.071624e-01
        93         4        1.683337e+00
        94         4        2.792641e-01
        95         4       -1.896585e-01
        96         4        2.864328e-01
        97         4       -2.619962e-01
        98         4       -3.892311e-01
        99         4       -3.806820e-01
       100         4       -1.247997e+00
         1         5        3.890393e-01
         2         5        5.455237e-01
         3         5        1.638454e+00
         4         5        1.371533e+00
         5         5       -4.147702e-01
         6         5       -1.510701e+00
         7         5       -8.812252e-01
         8         5       -2.611497e-01
         9         5        1.084423e+00
        10         5        6.972652e-01
        11         5        3.532052e-01
        12         5       -1.769661e+00
        13         5       -1.947689e+00
        14         5       -1.329851e+00
        15         5        3.823136e-01
        16         5        9.356786e-01
        17         5       -1.256441e+00
        18         5       -4.909432e-01
        19         5        1.098922e-02
        20         5       -1.670651e+00
        21         5       -2.037735e+00
        22         5       -1.271668e-01
        23         5        2.153551e+00
        24         5        1.764044e+00
        25         5       -1.846388e+00
        26         5       -6.411277e-01
        27         5       -6.304133e-01
        28         5       -8.634444e-01
        29         5       -2.593867e-01
        30         5        8.441972e-01
        31         5       -8.230877e-01
        32         5       -1.029951e+00
        33         5        3.156756e-01
        34         5       -2.044762e+00
        35         5        1.583246e+00
        36         5        2.493615e-01
        37         5        1.868071e-01
        38         5       -1.130719e-01
        39         5       -6.532378e-01
        40         5        6.979022e-01
        41         5        4.097503e-01
        42         5        5.509609e-01
        43         5       -6.752190e-01
        44         5       -9.846182e-01
        45         5       -1.823815e+00
        46         5       -5.188875e-01
        47         5       -1.473826e+00
        48         5       -1.659367e+00
        49         5        1.878575e+00
        50         5        1.472489e-01
        51         5        8.496984e-01
        52         5       -6.767262e-01
        53         5        3.711856e-01
        54         5       -2.356834e-01
        55         5        9.187052e-02
        56         5        3.268774e-01
        57         5       -7.853080e-01
        58         5        2.086957e-02
        59         5       -3.213495e-01
        60         5        2.559873e+00
        61         5       -1.979029e+00
        62         5       -9.039712e-01
        63         5        1.296607e+00
        64         5        9.610540e-01
        65         5        1.218073e+00
        66         5       -5.445640e-01
        67         5       -3.416683e-01
        68         5        7.442138e-01
        69         5       -3.545138e-02
        70         5        1.820635e-01
        71         5       -6.052391e-01
        72         5        2.995920e-01
        73         5        4.031248e-01
        74         5       -9.304413e-01
        75         5        5.366599e-01
        76         5        6.285875e-01
        77         5       -2.408373e-01
        78         5        1.261005e+00
        79         5        6.228433e-01
        80         5       -1.327838e+00
        81         5        1.374437e+00
        82         5       -1.857893e-01
        83         5       -8.055601e-01
        84         5        7.483209e-01
        85         5        1.154091e+00
        86         5       -1.201702e+00
        87         5       -1.553857e+00
        88         5        6.870676e-01
        89         5       -2.524778e-01
        90         5        1.806276e+00
        91         5        2.349982e-01
        92         5       -2.169901e+00
        93         5       -1.155896e+00
        94         5        2.155039e+00
        95         5        3.322173e-01
        96         5        3.995479e-01
        97         5       -2.444814e+00
        98         5       -5.406405e-01
        99         5       -2.880373e-01
       100         5        7.964368e-01
;

param theta:=
    1        4.650685e-02
    2        2.602803e-01
    3        1.225506e+00
    4       -1.009724e+00
    5       -2.559420e-01
;
param X_true:=
    1        1.667212e-01
    2       -2.334731e-01
    3       -2.364152e+00
    4       -3.057345e-01
    5        1.458685e-01
    6       -1.784754e+00
    7       -1.716198e+00
    8       -1.801257e+00
    9        6.761791e-01
   10        2.608125e+00
   11        3.825295e-01
   12       -7.512196e-01
   13       -2.369060e+00
   14        1.379478e-01
   15       -1.337609e+00
   16        2.648733e+00
   17        2.374051e+00
   18       -4.088167e+00
   19        1.746915e+00
   20        1.946563e+00
   21       -1.474376e+00
   22       -4.729253e-01
   23        1.380993e+00
   24       -1.477285e+00
   25        9.227802e-02
   26        1.745280e+00
   27        2.451386e+00
   28        1.983521e+00
   29       -1.911095e-01
   30        1.747809e+00
   31        4.874594e-01
   32        1.653108e+00
   33        6.513494e-01
   34       -2.167365e-01
   35       -8.463983e-01
   36        1.325689e+00
   37        2.546847e+00
   38        2.019533e+00
   39       -4.897048e-01
   40        8.601879e-01
   41       -1.794574e+00
   42        2.380062e-01
   43       -1.666432e+00
   44       -1.838514e-01
   45       -6.531498e-01
   46        1.277037e+00
   47       -6.072362e-01
   48        1.321363e+00
   49       -4.201070e-01
   50       -2.521014e+00
   51       -1.739680e+00
   52       -7.636149e-01
   53       -2.650866e-01
   54        1.881071e+00
   55        1.145265e+00
   56       -5.666210e+00
   57        3.312807e+00
   58        2.952976e-01
   59       -3.832954e-01
   60       -1.294774e+00
   61       -5.219030e-01
   62       -1.767822e+00
   63       -2.338682e-01
   64        1.721564e-02
   65        8.953021e-01
   66       -2.071090e+00
   67       -3.164122e-01
   68       -2.388628e+00
   69        3.643415e-01
   70       -9.409371e-01
   71       -1.721854e+00
   72        9.970012e-01
   73       -1.703277e+00
   74        2.456217e-01
   75       -9.667038e-01
   76        4.007751e-01
   77        5.756775e-01
   78       -9.066522e-01
   79       -1.204782e+00
   80        1.036382e+00
   81       -1.812378e+00
   82       -8.739154e-01
   83       -3.109936e-01
   84       -6.452924e-01
   85        5.227756e-01
   86        2.475227e+00
   87       -1.591490e+00
   88        8.440061e-01
   89        1.072439e+00
   90        5.404226e-01
   91       -9.733192e-01
   92        5.398293e-01
   93        3.238962e-01
   94       -1.489402e+00
   95        3.120455e-01
   96        6.407119e-01
   97        9.394168e-01
   98        1.623988e+00
   99        1.873850e+00
  100        3.856981e-01
;
param X:=
    1       -1.282277e+00
    2       -7.194110e-01
    3        6.161044e-02
    4       -6.566978e-01
    5        2.206224e+00
    6        4.063646e-01
    7       -1.731423e+00
    8        3.544435e-01
    9        2.239881e+00
   10       -5.557198e-01
   11       -4.477049e-02
   12       -5.845625e-01
   13        1.056748e+00
   14        2.415739e+00
   15       -1.337609e+00
   16        2.648733e+00
   17        2.460309e-01
   18        8.493709e-01
   19       -5.022927e-01
   20       -1.119231e-01
   21       -1.474376e+00
   22       -1.187487e+00
   23        1.380993e+00
   24       -1.849997e-01
   25        2.082869e+00
   26        1.745280e+00
   27       -1.513725e+00
   28        1.983521e+00
   29        8.272019e-01
   30        5.755409e-01
   31       -1.827544e-02
   32       -6.053822e-02
   33        6.420502e-01
   34       -2.167365e-01
   35       -9.427422e-01
   36        2.683943e-01
   37       -1.543571e+00
   38       -6.118181e-02
   39        1.844986e+00
   40       -1.065571e+00
   41       -4.703136e-01
   42       -1.892367e-01
   43        5.111961e-01
   44        6.455067e-01
   45        1.052492e-01
   46        1.477847e+00
   47        7.398335e-01
   48        5.960669e-01
   49       -1.502892e-01
   50        3.590873e-01
   51       -1.739680e+00
   52       -6.650244e-01
   53        6.167582e-01
   54        2.608761e+00
   55        1.093150e+00
   56        1.952850e-01
   57        5.927687e-01
   58        2.952976e-01
   59       -3.832954e-01
   60        3.675492e-01
   61       -6.555501e-01
   62        1.011110e+00
   63        3.394282e-01
   64        1.721564e-02
   65        1.404534e-01
   66       -5.397224e-01
   67       -6.181316e-01
   68        4.233926e-01
   69        1.516850e+00
   70       -2.119950e-01
   71        1.382353e+00
   72       -7.284537e-01
   73        1.987156e+00
   74        1.438501e-01
   75       -9.667038e-01
   76        7.211864e-01
   77       -1.935309e+00
   78       -4.054921e-01
   79       -1.376628e+00
   80       -2.222143e-01
   81       -6.318094e-01
   82       -8.739154e-01
   83       -3.109936e-01
   84        3.025006e-01
   85        8.886464e-02
   86        9.531760e-01
   87       -1.591490e+00
   88       -3.959813e-01
   89       -1.372959e+00
   90       -1.755768e-01
   91       -2.196205e+00
   92        4.896549e-01
   93        1.227788e+00
   94       -3.791793e-01
   95        2.638282e-01
   96       -1.254791e+00
   97        1.725951e-01
   98        1.182159e-01
   99       -1.962029e+00
  100        2.027080e+00
;
param outliervec:=
    1    1
    2    1
    3    1
    4    1
    5    1
    6    1
    7    1
    8    1
    9    1
   10    1
   11    1
   12    1
   13    1
   14    1
   15    0
   16    0
   17    1
   18    1
   19    1
   20    1
   21    0
   22    1
   23    0
   24    1
   25    1
   26    0
   27    1
   28    0
   29    1
   30    1
   31    1
   32    1
   33    1
   34    0
   35    1
   36    1
   37    1
   38    1
   39    1
   40    1
   41    1
   42    1
   43    1
   44    1
   45    1
   46    1
   47    1
   48    1
   49    1
   50    1
   51    0
   52    1
   53    1
   54    1
   55    1
   56    1
   57    1
   58    0
   59    0
   60    1
   61    1
   62    1
   63    1
   64    0
   65    1
   66    1
   67    1
   68    1
   69    1
   70    1
   71    1
   72    1
   73    1
   74    1
   75    0
   76    1
   77    1
   78    1
   79    1
   80    1
   81    1
   82    0
   83    0
   84    1
   85    1
   86    1
   87    0
   88    1
   89    1
   90    1
   91    1
   92    1
   93    1
   94    1
   95    1
   96    1
   97    1
   98    1
   99    1
  100    1
;